c CaDiCaL SAT Solver
c Copyright (c) 2016-2021 Armin Biere, University of Freiburg
c Version 1.5.3 ae634897f4f14e12f8e0f4ad8bc28ce364f23c93
c 
c Reading DIMACS file from 'problem3.cnf'
c [problem3.cnf] parsed header 'p cnf 8500 36200'
c 
c --- [ options ] ---
c 
c chronological 0
c --chrono=0
c 
c --- [ solving ] ---
c 
c  seconds  reductions  redundant irredundant
c         MB   restarts      trail      clauses
c 
c   0.00  42 0 0 0 0 0 
c   0.05  43 1 120 1250 36200
c   0.52  45 2 583 2840 36200
c   1.28  47 3 1024 4120 36200
c   2.41  49 4 1589 5680 36200
c   4.15  51 5 2341 7420 36200
c   6.28  53 6 3156 9180 36200
c   8.73  55 7 4028 10840 36200
c  11.45  57 8 4973 12580 36200
c  14.62  59 9 5984 14240 36200
c  18.31  61 10 7048 15920 36200
c  21.85  63 11 8176 17580 36200
c 
c --- [ result ] ---
c 
s SATISFIABLE
c 
c --- [ profiling ] ---
c 
c decisions: 8176
c conflicts: 4582
c propagations: 24583940
c conflict literals: 1849216
c 
c restarts: 11
c rephased: 2
c 
c --- [ resources ] ---
c 
c total process time since initialization: 22.10 seconds
c total real time: 22.10 seconds
c maximum resident set size: 63.47 MB
c 
c --- [ shutting down ] ---
c 
c exit 10